%%%mzn-stat: initTime=0.011544066
%%%mzn-stat: objective=239
%%%mzn-stat: nodes=16228
%%%mzn-stat: restarts=0
%%%mzn-stat: peakDepth=322
%%%mzn-stat: solveTime=0.953460811
%%%mzn-stat: variables=1113
%%%mzn-stat: propagators=807
%%%mzn-stat: failures=3512
%%%mzn-stat: propagations=286581
%%%mzn-stat: nogoods=3512
%%%mzn-stat: AverageConflictSize=21.236617312072894
%%%mzn-stat: NumUnitNogoodsLearned=238
%%%mzn-stat: AverageLearnedNogoodLength=29.10136674259681
%%%mzn-stat: AverageBacktrackAmount=0
%%%mzn-stat: AverageLbd=9.242027334851937
%%%mzn-stat-end
maxleg = 239;
succ = array1d(1..50,[4, 20, 32, 38, 3, 18, 45, 17, 39, 9, 15, 13, 33, 28, 2, 43, 40, 47, 12, 22, 24, 27, 8, 6, 26, 16, 35, 41, 37, 19, 48, 11, 34, 46, 42, 50, 44, 5, 21, 7, 30, 14, 10, 36, 1, 31, 23, 29, 25, 49]);
% time elapsed: 3.01 s
----------
==========
% time elapsed: 3.01 s
%%%mzn-stat: initTime=0.011544066
%%%mzn-stat: objective=239
%%%mzn-stat: nodes=16228
%%%mzn-stat: restarts=0
%%%mzn-stat: peakDepth=322
%%%mzn-stat: solveTime=0.953464785
%%%mzn-stat: variables=1113
%%%mzn-stat: propagators=807
%%%mzn-stat: failures=3512
%%%mzn-stat: propagations=286581
%%%mzn-stat: nogoods=3512
%%%mzn-stat: AverageConflictSize=21.236617312072894
%%%mzn-stat: NumUnitNogoodsLearned=238
%%%mzn-stat: AverageLearnedNogoodLength=29.10136674259681
%%%mzn-stat: AverageBacktrackAmount=0
%%%mzn-stat: AverageLbd=9.242027334851937
%%%mzn-stat-end
